NAME : ClusterId_0 
COMMENT : (Gillet and Johnson) 
TYPE : CVRP 
DIMENSION : 15 
EDGE_WEIGHT_TYPE : EUC_2D 
CAPACITY : 500 
NODE_COORD_SECTION 
1 -33 33 
70 -18 34 
178 -16 36 
4 0 14 
238 -13 38 
191 -16 16 
9 -12 10 
124 -4 17 
119 -3 17 
164 -28 39 
225 -26 43 
63 -12 42 
250 -14 44 
158 -17 49 
83 -20 51 
DEMAND_SECTION 
1 1000
70 39
178 36
4 93
238 28
191 75
9 36
124 23
119 18
164 97
225 99
63 37
250 50
158 79
83 99
DEPOT_SECTION 
1
 -1
EOF